problem_generation/data/GISP/train/er_n=62_m=1145_p=0.60_SET2_setparam=100.00_alpha=0.50_270.lp
maximize
OBJ:100x0 + 100x1 + 100x2 + 100x3 + 100x4 + 100x5 + 100x6 + 100x7 + 100x8 + 100x9 + 100x10 + 100x11 + 100x12 + 100x13 + 100x14 + 100x15 + 100x16 + 100x17 + 100x18 + 100x19 + 100x20 + 100x21 + 100x22 + 100x23 + 100x24 + 100x25 + 100x26 + 100x27 + 100x28 + 100x29 + 100x30 + 100x31 + 100x32 + 100x33 + 100x34 + 100x35 + 100x36 + 100x37 + 100x38 + 100x39 + 100x40 + 100x41 + 100x42 + 100x43 + 100x44 + 100x45 + 100x46 + 100x47 + 100x48 + 100x49 + 100x50 + 100x51 + 100x52 + 100x53 + 100x54 + 100x55 + 100x56 + 100x57 + 100x58 + 100x59 + 100x60 + 100x61 - y15_21 - y15_39 - y17_58 - y18_35 - y18_44 - y0_5 - y29_41 - y48_54 - y0_14 - y6_48 - y11_14 - y40_59 - y21_55 - y25_34 - y10_45 - y33_56 - y2_50 - y3_15 - y25_52 - y2_59 - y3_24 - y14_24 - y22_37 - y25_61 - y3_33 - y22_46 - y3_42 - y36_48 - y47_48 - y18_21 - y7_30 - y9_49 - y18_30 - y5_60 - y29_45 - y21_41 - y21_50 - y6_61 - y10_31 - y2_27 - y25_38 - y10_58 - y3_19 - y35_60 - y17_39 - y28_39 - y47_52 - y5_46 - y17_48 - y28_48 - y9_44 - y47_61 - y5_55 - y17_57 - y28_57 - y48_53 - y6_47 - y29_49 - y6_56 - y10_17 - y10_26 - y2_22 - y33_37 - y25_33 - y10_44 - y3_14 - y32_50 - y43_50 - y35_46 - y14_23 - y43_59 - y13_55 - y24_55 - y16_60 - y7_11 - y9_39 - y17_61 - y21_40 - y6_51 - y10_12 - y39_48 - y2_8 - y39_57 - y20_53 - y31_53 - y10_39 - y13_32 - y3_9 - y13_41 - y3_18 - y35_50 - y1_57 - y35_59 - y16_55 - y5_36 - y6_10 - y17_56 - y9_61 - y21_26 - y27_60 - y21_35 - y6_46 - y2_3 - y20_39 - y10_16 - y39_61 - y2_30 - y4_58 - y32_40 - y43_49 - y35_45 - y24_54 - y9_11 - y17_24 - y9_20 - y9_29 - y5_40 - y9_38 - y6_23 - y58_61 - y50_57 - y8_51 - y30_60 - y20_34 - y31_34 - y2_7 - y20_43 - y39_56 - y12_39 - y23_39 - y31_61 - y13_22 - y16_18 - y24_31 - y43_44 - y1_38 - y1_47 - y13_49 - y16_45 - y5_8 - y5_17 - y46_55 - y49_51 - y17_28 - y5_35 - y17_37 - y27_41 - y19_46 - y30_46 - y42_48 - y8_55 - y30_55 - y20_29 - y11_60 - y23_25 - y39_42 - y2_11 - y4_30 - y31_47 - y39_60 - y4_57 - y1_33 - y17_23 - y57_59 - y9_19 - y49_55 - y27_36 - y42_43 - y30_50 - y42_52 - y8_59 - y19_59 - y0_55 - y23_29 - y12_38 - y23_38 - y4_43 - y1_19 - y16_17 - y24_30 - y5_7 - y5_16 - y26_48 - y5_25 - y7_44 - y19_27 - y19_36 - y19_45 - y30_45 - y8_54 - y0_50 - y11_50 - y20_28 - y4_11 - y11_59 - y23_24 - y41_60 - y12_33 - y4_38 - y1_14 - y1_23 - y53_61 - y45_57 - y1_32 - y37_53 - y3_60 - y26_34 - y5_11 - y15_43 - y18_39 - y15_52 - y49_54 - y26_61 - y7_57 - y11_18 - y19_31 - y27_44 - y0_27 - y27_53 - y30_49 - y11_45 - y0_54 - y4_15 - y4_24 - y33_60 - y53_56 - y37_39 - y34_52 - y45_52 - y3_46 - y56_61 - y3_55 - y26_29 - y7_25 - y15_47 - y26_47 - y15_56 - y11_13 - y7_61 - y8_26 - y18_61 - y0_22 - y11_22 - y30_35 - y11_31 - y30_44 - y11_49 - y44_46 - y41_59 - y52_59 - y22_36 - y34_47 - y3_41 - y14_41 - y3_50 - y26_33 - y18_29 - y15_42 - y26_42 - y7_38 - y26_51 - y18_56 - y8_21 - y29_53 - y19_30 - y6_60 - y41_54 - y10_48 - y10_57 - y14_27 - y37_38 - y45_51 - y37_56 - y15_19 - y47_60 - y7_33 - y26_46 - y7_42 - y0_3 - y11_12 - y29_48 - y40_48 - y21_53 - y11_30 - y33_36 - y44_45 - y25_59 - y34_37 - y14_31 - y22_53 - y3_49 - y18_19 - y36_55 - y26_32 - y28_51 - y47_55 - y28_60 - y29_34 - y8_11 - y6_41 - y29_52 - y6_59 - y29_61 - y10_29 - y2_25 - y10_38 - y2_34 - y25_36 - y2_43 - y25_45 - y10_56 - y2_52 - y22_39 - y13_58 - y14_35 - y3_44 - y14_44 - y17_46 - y28_46 - y5_53 - y28_55 - y9_51 - y6_27 - y0_2 - y6_36 - y29_38 - y6_45 - y40_47 - y29_56 - y2_20 - y54_58 - y2_29 - y10_42 - y25_40 - y3_12 - y51_61 - y3_21 - y43_57 - y13_53 - y24_53 - y16_58 - y55_58 - y5_48 - y5_57 - y6_22 - y6_31 - y21_29 - y29_42 - y29_51 - y21_47 - y6_58 - y39_55 - y10_28 - y20_60 - y2_42 - y14_16 - y13_48 - y35_48 - y3_25 - y13_57 - y24_57 - y35_57 - y17_36 - y28_36 - y9_32 - y5_43 - y6_8 - y9_50 - y21_24 - y2_10 - y10_23 - y13_25 - y13_34 - y43_47 - y51_60 - y24_43 - y13_52 - y24_52 - y35_61 - y16_57 - y5_20 - y9_36 - y6_30 - y6_39 - y19_58 - y42_60 - y2_5 - y24_29 - y1_45 - y13_47 - y24_47 - y35_56 - y46_53 - y9_13 - y5_33 - y6_7 - y27_57 - y19_53 - y30_53 - y20_27 - y0_58 - y20_36 - y12_32 - y23_32 - y2_9 - y31_45 - y12_41 - y23_41 - y2_18 - y31_54 - y54_56 - y12_50 - y23_59 - y53_60 - y1_31 - y13_33 - y24_33 - y43_46 - y1_40 - y16_38 - y1_49 - y35_51 - y1_58 - y5_19 - y38_53 - y28_30 - y9_26 - y27_34 - y6_11 - y6_20 - y19_39 - y30_39 - y50_54 - y42_50 - y8_57 - y0_53 - y20_31 - y39_53 - y23_45 - y1_17 - y1_35 - y24_37 - y16_33 - y16_42 - y38_39 - y9_21 - y5_32 - y7_60 - y27_38 - y8_34 - y19_34 - y27_47 - y30_43 - y11_39 - y8_52 - y11_48 - y30_61 - y20_26 - y0_57 - y4_18 - y23_31 - y20_44 - y31_44 - y23_40 - y23_49 - y34_46 - y13_23 - y53_59 - y16_19 - y5_9 - y15_41 - y38_43 - y26_50 - y49_52 - y7_55 - y8_20 - y18_55 - y8_29 - y19_29 - y0_34 - y30_47 - y42_49 - y0_43 - y19_56 - y30_56 - y41_53 - y0_61 - y11_61 - y44_58 - y1_7 - y34_41 - y1_16 - y13_18 - y1_25 - y16_23 - y56_59 - y3_53 - y14_53 - y26_36 - y5_13 - y18_32 - y46_51 - y38_47 - y26_54 - y38_56 - y18_50 - y18_59 - y8_33 - y19_33 - y0_29 - y19_51 - y60_61 - y12_21 - y41_57 - y4_17 - y44_53 - y1_2 - y22_43 - y53_58 - y37_41 - y34_54 - y37_50 - y7_18 - y7_27 - y15_58 - y8_19 - y0_15 - y11_15 - y19_28 - y40_60 - y8_37 - y19_37 - y11_33 - y0_42 - y12_16 - y41_52 - y10_46 - y33_48 - y52_61 - y25_44 - y44_57 - y1_6 - y22_38 - y3_34 - y45_49 - y22_56 - y14_52 - y15_17 - y15_44 - y26_44 - y18_40 - y18_49 - y48_50 - y0_10 - y29_46 - y48_59 - y11_19 - y21_51 - y11_28 - y33_43 - y4_16 - y10_50 - y44_52 - y2_46 - y3_20 - y14_29 - y3_38 - y7_8
 Subject to
C1: x0+x2-y0_2 <=1 
C2: x0+x3-y0_3 <=1 
C3: x0+x4 <=1 
C4: x0+x5-y0_5 <=1 
C5: x0+x6 <=1 
C6: x0+x8 <=1 
C7: x0+x10-y0_10 <=1 
C8: x0+x11 <=1 
C9: x0+x14-y0_14 <=1 
C10: x0+x15-y0_15 <=1 
C11: x0+x17 <=1 
C12: x0+x19 <=1 
C13: x0+x20 <=1 
C14: x0+x22-y0_22 <=1 
C15: x0+x24 <=1 
C16: x0+x27-y0_27 <=1 
C17: x0+x28 <=1 
C18: x0+x29-y0_29 <=1 
C19: x0+x32 <=1 
C20: x0+x33 <=1 
C21: x0+x34-y0_34 <=1 
C22: x0+x35 <=1 
C23: x0+x36 <=1 
C24: x0+x38 <=1 
C25: x0+x39 <=1 
C26: x0+x42-y0_42 <=1 
C27: x0+x43-y0_43 <=1 
C28: x0+x50-y0_50 <=1 
C29: x0+x51 <=1 
C30: x0+x52 <=1 
C31: x0+x53-y0_53 <=1 
C32: x0+x54-y0_54 <=1 
C33: x0+x55-y0_55 <=1 
C34: x0+x57-y0_57 <=1 
C35: x0+x58-y0_58 <=1 
C36: x0+x60 <=1 
C37: x0+x61-y0_61 <=1 
C38: x1+x2-y1_2 <=1 
C39: x1+x4 <=1 
C40: x1+x5 <=1 
C41: x1+x6-y1_6 <=1 
C42: x1+x7-y1_7 <=1 
C43: x1+x8 <=1 
C44: x1+x9 <=1 
C45: x1+x10 <=1 
C46: x1+x11 <=1 
C47: x1+x12 <=1 
C48: x1+x13 <=1 
C49: x1+x14-y1_14 <=1 
C50: x1+x16-y1_16 <=1 
C51: x1+x17-y1_17 <=1 
C52: x1+x19-y1_19 <=1 
C53: x1+x21 <=1 
C54: x1+x23-y1_23 <=1 
C55: x1+x24 <=1 
C56: x1+x25-y1_25 <=1 
C57: x1+x26 <=1 
C58: x1+x27 <=1 
C59: x1+x31-y1_31 <=1 
C60: x1+x32-y1_32 <=1 
C61: x1+x33-y1_33 <=1 
C62: x1+x34 <=1 
C63: x1+x35-y1_35 <=1 
C64: x1+x36 <=1 
C65: x1+x37 <=1 
C66: x1+x38-y1_38 <=1 
C67: x1+x40-y1_40 <=1 
C68: x1+x45-y1_45 <=1 
C69: x1+x46 <=1 
C70: x1+x47-y1_47 <=1 
C71: x1+x49-y1_49 <=1 
C72: x1+x52 <=1 
C73: x1+x53 <=1 
C74: x1+x55 <=1 
C75: x1+x57-y1_57 <=1 
C76: x1+x58-y1_58 <=1 
C77: x1+x60 <=1 
C78: x2+x3-y2_3 <=1 
C79: x2+x4 <=1 
C80: x2+x5-y2_5 <=1 
C81: x2+x6 <=1 
C82: x2+x7-y2_7 <=1 
C83: x2+x8-y2_8 <=1 
C84: x2+x9-y2_9 <=1 
C85: x2+x10-y2_10 <=1 
C86: x2+x11-y2_11 <=1 
C87: x2+x13 <=1 
C88: x2+x15 <=1 
C89: x2+x16 <=1 
C90: x2+x18-y2_18 <=1 
C91: x2+x20-y2_20 <=1 
C92: x2+x22-y2_22 <=1 
C93: x2+x23 <=1 
C94: x2+x25-y2_25 <=1 
C95: x2+x27-y2_27 <=1 
C96: x2+x29-y2_29 <=1 
C97: x2+x30-y2_30 <=1 
C98: x2+x32 <=1 
C99: x2+x34-y2_34 <=1 
C100: x2+x35 <=1 
C101: x2+x37 <=1 
C102: x2+x39 <=1 
C103: x2+x40 <=1 
C104: x2+x42-y2_42 <=1 
C105: x2+x43-y2_43 <=1 
C106: x2+x44 <=1 
C107: x2+x45 <=1 
C108: x2+x46-y2_46 <=1 
C109: x2+x47 <=1 
C110: x2+x48 <=1 
C111: x2+x50-y2_50 <=1 
C112: x2+x52-y2_52 <=1 
C113: x2+x55 <=1 
C114: x2+x59-y2_59 <=1 
C115: x3+x7 <=1 
C116: x3+x8 <=1 
C117: x3+x9-y3_9 <=1 
C118: x3+x11 <=1 
C119: x3+x12-y3_12 <=1 
C120: x3+x13 <=1 
C121: x3+x14-y3_14 <=1 
C122: x3+x15-y3_15 <=1 
C123: x3+x18-y3_18 <=1 
C124: x3+x19-y3_19 <=1 
C125: x3+x20-y3_20 <=1 
C126: x3+x21-y3_21 <=1 
C127: x3+x23 <=1 
C128: x3+x24-y3_24 <=1 
C129: x3+x25-y3_25 <=1 
C130: x3+x29 <=1 
C131: x3+x30 <=1 
C132: x3+x32 <=1 
C133: x3+x33-y3_33 <=1 
C134: x3+x34-y3_34 <=1 
C135: x3+x35 <=1 
C136: x3+x36 <=1 
C137: x3+x37 <=1 
C138: x3+x38-y3_38 <=1 
C139: x3+x40 <=1 
C140: x3+x41-y3_41 <=1 
C141: x3+x42-y3_42 <=1 
C142: x3+x43 <=1 
C143: x3+x44-y3_44 <=1 
C144: x3+x45 <=1 
C145: x3+x46-y3_46 <=1 
C146: x3+x47 <=1 
C147: x3+x49-y3_49 <=1 
C148: x3+x50-y3_50 <=1 
C149: x3+x52 <=1 
C150: x3+x53-y3_53 <=1 
C151: x3+x54 <=1 
C152: x3+x55-y3_55 <=1 
C153: x3+x58 <=1 
C154: x3+x59 <=1 
C155: x3+x60-y3_60 <=1 
C156: x4+x7 <=1 
C157: x4+x9 <=1 
C158: x4+x11-y4_11 <=1 
C159: x4+x14 <=1 
C160: x4+x15-y4_15 <=1 
C161: x4+x16-y4_16 <=1 
C162: x4+x17-y4_17 <=1 
C163: x4+x18-y4_18 <=1 
C164: x4+x21 <=1 
C165: x4+x23 <=1 
C166: x4+x24-y4_24 <=1 
C167: x4+x25 <=1 
C168: x4+x26 <=1 
C169: x4+x27 <=1 
C170: x4+x30-y4_30 <=1 
C171: x4+x33 <=1 
C172: x4+x36 <=1 
C173: x4+x38-y4_38 <=1 
C174: x4+x39 <=1 
C175: x4+x40 <=1 
C176: x4+x41 <=1 
C177: x4+x43-y4_43 <=1 
C178: x4+x44 <=1 
C179: x4+x46 <=1 
C180: x4+x49 <=1 
C181: x4+x52 <=1 
C182: x4+x54 <=1 
C183: x4+x56 <=1 
C184: x4+x57-y4_57 <=1 
C185: x4+x58-y4_58 <=1 
C186: x4+x59 <=1 
C187: x5+x7-y5_7 <=1 
C188: x5+x8-y5_8 <=1 
C189: x5+x9-y5_9 <=1 
C190: x5+x11-y5_11 <=1 
C191: x5+x13-y5_13 <=1 
C192: x5+x14 <=1 
C193: x5+x15 <=1 
C194: x5+x16-y5_16 <=1 
C195: x5+x17-y5_17 <=1 
C196: x5+x19-y5_19 <=1 
C197: x5+x20-y5_20 <=1 
C198: x5+x21 <=1 
C199: x5+x22 <=1 
C200: x5+x24 <=1 
C201: x5+x25-y5_25 <=1 
C202: x5+x27 <=1 
C203: x5+x28 <=1 
C204: x5+x31 <=1 
C205: x5+x32-y5_32 <=1 
C206: x5+x33-y5_33 <=1 
C207: x5+x34 <=1 
C208: x5+x35-y5_35 <=1 
C209: x5+x36-y5_36 <=1 
C210: x5+x38 <=1 
C211: x5+x40-y5_40 <=1 
C212: x5+x41 <=1 
C213: x5+x43-y5_43 <=1 
C214: x5+x46-y5_46 <=1 
C215: x5+x47 <=1 
C216: x5+x48-y5_48 <=1 
C217: x5+x53-y5_53 <=1 
C218: x5+x55-y5_55 <=1 
C219: x5+x57-y5_57 <=1 
C220: x5+x58 <=1 
C221: x5+x60-y5_60 <=1 
C222: x6+x7-y6_7 <=1 
C223: x6+x8-y6_8 <=1 
C224: x6+x9 <=1 
C225: x6+x10-y6_10 <=1 
C226: x6+x11-y6_11 <=1 
C227: x6+x16 <=1 
C228: x6+x17 <=1 
C229: x6+x20-y6_20 <=1 
C230: x6+x22-y6_22 <=1 
C231: x6+x23-y6_23 <=1 
C232: x6+x24 <=1 
C233: x6+x26 <=1 
C234: x6+x27-y6_27 <=1 
C235: x6+x30-y6_30 <=1 
C236: x6+x31-y6_31 <=1 
C237: x6+x32 <=1 
C238: x6+x34 <=1 
C239: x6+x35 <=1 
C240: x6+x36-y6_36 <=1 
C241: x6+x37 <=1 
C242: x6+x39-y6_39 <=1 
C243: x6+x40 <=1 
C244: x6+x41-y6_41 <=1 
C245: x6+x42 <=1 
C246: x6+x44 <=1 
C247: x6+x45-y6_45 <=1 
C248: x6+x46-y6_46 <=1 
C249: x6+x47-y6_47 <=1 
C250: x6+x48-y6_48 <=1 
C251: x6+x51-y6_51 <=1 
C252: x6+x52 <=1 
C253: x6+x55 <=1 
C254: x6+x56-y6_56 <=1 
C255: x6+x57 <=1 
C256: x6+x58-y6_58 <=1 
C257: x6+x59-y6_59 <=1 
C258: x6+x60-y6_60 <=1 
C259: x6+x61-y6_61 <=1 
C260: x7+x8-y7_8 <=1 
C261: x7+x9 <=1 
C262: x7+x10 <=1 
C263: x7+x11-y7_11 <=1 
C264: x7+x12 <=1 
C265: x7+x14 <=1 
C266: x7+x18-y7_18 <=1 
C267: x7+x21 <=1 
C268: x7+x22 <=1 
C269: x7+x25-y7_25 <=1 
C270: x7+x26 <=1 
C271: x7+x27-y7_27 <=1 
C272: x7+x30-y7_30 <=1 
C273: x7+x33-y7_33 <=1 
C274: x7+x38-y7_38 <=1 
C275: x7+x39 <=1 
C276: x7+x40 <=1 
C277: x7+x42-y7_42 <=1 
C278: x7+x43 <=1 
C279: x7+x44-y7_44 <=1 
C280: x7+x45 <=1 
C281: x7+x46 <=1 
C282: x7+x50 <=1 
C283: x7+x51 <=1 
C284: x7+x53 <=1 
C285: x7+x55-y7_55 <=1 
C286: x7+x56 <=1 
C287: x7+x57-y7_57 <=1 
C288: x7+x59 <=1 
C289: x7+x60-y7_60 <=1 
C290: x7+x61-y7_61 <=1 
C291: x8+x10 <=1 
C292: x8+x11-y8_11 <=1 
C293: x8+x12 <=1 
C294: x8+x17 <=1 
C295: x8+x18 <=1 
C296: x8+x19-y8_19 <=1 
C297: x8+x20-y8_20 <=1 
C298: x8+x21-y8_21 <=1 
C299: x8+x22 <=1 
C300: x8+x26-y8_26 <=1 
C301: x8+x27 <=1 
C302: x8+x29-y8_29 <=1 
C303: x8+x33-y8_33 <=1 
C304: x8+x34-y8_34 <=1 
C305: x8+x37-y8_37 <=1 
C306: x8+x39 <=1 
C307: x8+x41 <=1 
C308: x8+x51-y8_51 <=1 
C309: x8+x52-y8_52 <=1 
C310: x8+x54-y8_54 <=1 
C311: x8+x55-y8_55 <=1 
C312: x8+x56 <=1 
C313: x8+x57-y8_57 <=1 
C314: x8+x59-y8_59 <=1 
C315: x8+x61 <=1 
C316: x9+x11-y9_11 <=1 
C317: x9+x13-y9_13 <=1 
C318: x9+x17 <=1 
C319: x9+x18 <=1 
C320: x9+x19-y9_19 <=1 
C321: x9+x20-y9_20 <=1 
C322: x9+x21-y9_21 <=1 
C323: x9+x26-y9_26 <=1 
C324: x9+x29-y9_29 <=1 
C325: x9+x32-y9_32 <=1 
C326: x9+x33 <=1 
C327: x9+x36-y9_36 <=1 
C328: x9+x37 <=1 
C329: x9+x38-y9_38 <=1 
C330: x9+x39-y9_39 <=1 
C331: x9+x43 <=1 
C332: x9+x44-y9_44 <=1 
C333: x9+x45 <=1 
C334: x9+x46 <=1 
C335: x9+x49-y9_49 <=1 
C336: x9+x50-y9_50 <=1 
C337: x9+x51-y9_51 <=1 
C338: x9+x53 <=1 
C339: x9+x54 <=1 
C340: x9+x59 <=1 
C341: x9+x60 <=1 
C342: x9+x61-y9_61 <=1 
C343: x10+x11 <=1 
C344: x10+x12-y10_12 <=1 
C345: x10+x13 <=1 
C346: x10+x16-y10_16 <=1 
C347: x10+x17-y10_17 <=1 
C348: x10+x18 <=1 
C349: x10+x19 <=1 
C350: x10+x22 <=1 
C351: x10+x23-y10_23 <=1 
C352: x10+x26-y10_26 <=1 
C353: x10+x28-y10_28 <=1 
C354: x10+x29-y10_29 <=1 
C355: x10+x31-y10_31 <=1 
C356: x10+x32 <=1 
C357: x10+x33 <=1 
C358: x10+x34 <=1 
C359: x10+x37 <=1 
C360: x10+x38-y10_38 <=1 
C361: x10+x39-y10_39 <=1 
C362: x10+x40 <=1 
C363: x10+x41 <=1 
C364: x10+x42-y10_42 <=1 
C365: x10+x43 <=1 
C366: x10+x44-y10_44 <=1 
C367: x10+x45-y10_45 <=1 
C368: x10+x46-y10_46 <=1 
C369: x10+x47 <=1 
C370: x10+x48-y10_48 <=1 
C371: x10+x50-y10_50 <=1 
C372: x10+x52 <=1 
C373: x10+x54 <=1 
C374: x10+x56-y10_56 <=1 
C375: x10+x57-y10_57 <=1 
C376: x10+x58-y10_58 <=1 
C377: x10+x61 <=1 
C378: x11+x12-y11_12 <=1 
C379: x11+x13-y11_13 <=1 
C380: x11+x14-y11_14 <=1 
C381: x11+x15-y11_15 <=1 
C382: x11+x17 <=1 
C383: x11+x18-y11_18 <=1 
C384: x11+x19-y11_19 <=1 
C385: x11+x21 <=1 
C386: x11+x22-y11_22 <=1 
C387: x11+x23 <=1 
C388: x11+x28-y11_28 <=1 
C389: x11+x30-y11_30 <=1 
C390: x11+x31-y11_31 <=1 
C391: x11+x33-y11_33 <=1 
C392: x11+x34 <=1 
C393: x11+x35 <=1 
C394: x11+x36 <=1 
C395: x11+x37 <=1 
C396: x11+x39-y11_39 <=1 
C397: x11+x41 <=1 
C398: x11+x42 <=1 
C399: x11+x45-y11_45 <=1 
C400: x11+x47 <=1 
C401: x11+x48-y11_48 <=1 
C402: x11+x49-y11_49 <=1 
C403: x11+x50-y11_50 <=1 
C404: x11+x59-y11_59 <=1 
C405: x11+x60-y11_60 <=1 
C406: x11+x61-y11_61 <=1 
C407: x12+x13 <=1 
C408: x12+x14 <=1 
C409: x12+x16-y12_16 <=1 
C410: x12+x17 <=1 
C411: x12+x18 <=1 
C412: x12+x21-y12_21 <=1 
C413: x12+x22 <=1 
C414: x12+x23 <=1 
C415: x12+x26 <=1 
C416: x12+x27 <=1 
C417: x12+x30 <=1 
C418: x12+x31 <=1 
C419: x12+x32-y12_32 <=1 
C420: x12+x33-y12_33 <=1 
C421: x12+x36 <=1 
C422: x12+x37 <=1 
C423: x12+x38-y12_38 <=1 
C424: x12+x39-y12_39 <=1 
C425: x12+x41-y12_41 <=1 
C426: x12+x42 <=1 
C427: x12+x45 <=1 
C428: x12+x50-y12_50 <=1 
C429: x12+x53 <=1 
C430: x12+x54 <=1 
C431: x12+x55 <=1 
C432: x12+x56 <=1 
C433: x12+x57 <=1 
C434: x12+x59 <=1 
C435: x13+x16 <=1 
C436: x13+x18-y13_18 <=1 
C437: x13+x22-y13_22 <=1 
C438: x13+x23-y13_23 <=1 
C439: x13+x24 <=1 
C440: x13+x25-y13_25 <=1 
C441: x13+x27 <=1 
C442: x13+x32-y13_32 <=1 
C443: x13+x33-y13_33 <=1 
C444: x13+x34-y13_34 <=1 
C445: x13+x36 <=1 
C446: x13+x37 <=1 
C447: x13+x39 <=1 
C448: x13+x40 <=1 
C449: x13+x41-y13_41 <=1 
C450: x13+x43 <=1 
C451: x13+x44 <=1 
C452: x13+x46 <=1 
C453: x13+x47-y13_47 <=1 
C454: x13+x48-y13_48 <=1 
C455: x13+x49-y13_49 <=1 
C456: x13+x51 <=1 
C457: x13+x52-y13_52 <=1 
C458: x13+x53-y13_53 <=1 
C459: x13+x55-y13_55 <=1 
C460: x13+x56 <=1 
C461: x13+x57-y13_57 <=1 
C462: x13+x58-y13_58 <=1 
C463: x14+x16-y14_16 <=1 
C464: x14+x18 <=1 
C465: x14+x20 <=1 
C466: x14+x21 <=1 
C467: x14+x22 <=1 
C468: x14+x23-y14_23 <=1 
C469: x14+x24-y14_24 <=1 
C470: x14+x27-y14_27 <=1 
C471: x14+x29-y14_29 <=1 
C472: x14+x31-y14_31 <=1 
C473: x14+x35-y14_35 <=1 
C474: x14+x36 <=1 
C475: x14+x37 <=1 
C476: x14+x38 <=1 
C477: x14+x39 <=1 
C478: x14+x41-y14_41 <=1 
C479: x14+x42 <=1 
C480: x14+x44-y14_44 <=1 
C481: x14+x46 <=1 
C482: x14+x48 <=1 
C483: x14+x51 <=1 
C484: x14+x52-y14_52 <=1 
C485: x14+x53-y14_53 <=1 
C486: x14+x57 <=1 
C487: x14+x59 <=1 
C488: x15+x17-y15_17 <=1 
C489: x15+x18 <=1 
C490: x15+x19-y15_19 <=1 
C491: x15+x20 <=1 
C492: x15+x21-y15_21 <=1 
C493: x15+x23 <=1 
C494: x15+x25 <=1 
C495: x15+x27 <=1 
C496: x15+x30 <=1 
C497: x15+x31 <=1 
C498: x15+x32 <=1 
C499: x15+x33 <=1 
C500: x15+x34 <=1 
C501: x15+x35 <=1 
C502: x15+x38 <=1 
C503: x15+x39-y15_39 <=1 
C504: x15+x40 <=1 
C505: x15+x41-y15_41 <=1 
C506: x15+x42-y15_42 <=1 
C507: x15+x43-y15_43 <=1 
C508: x15+x44-y15_44 <=1 
C509: x15+x46 <=1 
C510: x15+x47-y15_47 <=1 
C511: x15+x51 <=1 
C512: x15+x52-y15_52 <=1 
C513: x15+x54 <=1 
C514: x15+x56-y15_56 <=1 
C515: x15+x57 <=1 
C516: x15+x58-y15_58 <=1 
C517: x15+x59 <=1 
C518: x15+x60 <=1 
C519: x15+x61 <=1 
C520: x16+x17-y16_17 <=1 
C521: x16+x18-y16_18 <=1 
C522: x16+x19-y16_19 <=1 
C523: x16+x20 <=1 
C524: x16+x23-y16_23 <=1 
C525: x16+x24 <=1 
C526: x16+x26 <=1 
C527: x16+x30 <=1 
C528: x16+x32 <=1 
C529: x16+x33-y16_33 <=1 
C530: x16+x34 <=1 
C531: x16+x35 <=1 
C532: x16+x38-y16_38 <=1 
C533: x16+x39 <=1 
C534: x16+x40 <=1 
C535: x16+x42-y16_42 <=1 
C536: x16+x45-y16_45 <=1 
C537: x16+x51 <=1 
C538: x16+x52 <=1 
C539: x16+x55-y16_55 <=1 
C540: x16+x57-y16_57 <=1 
C541: x16+x58-y16_58 <=1 
C542: x16+x60-y16_60 <=1 
C543: x17+x18 <=1 
C544: x17+x19 <=1 
C545: x17+x21 <=1 
C546: x17+x23-y17_23 <=1 
C547: x17+x24-y17_24 <=1 
C548: x17+x26 <=1 
C549: x17+x28-y17_28 <=1 
C550: x17+x31 <=1 
C551: x17+x32 <=1 
C552: x17+x36-y17_36 <=1 
C553: x17+x37-y17_37 <=1 
C554: x17+x39-y17_39 <=1 
C555: x17+x45 <=1 
C556: x17+x46-y17_46 <=1 
C557: x17+x48-y17_48 <=1 
C558: x17+x49 <=1 
C559: x17+x50 <=1 
C560: x17+x54 <=1 
C561: x17+x55 <=1 
C562: x17+x56-y17_56 <=1 
C563: x17+x57-y17_57 <=1 
C564: x17+x58-y17_58 <=1 
C565: x17+x61-y17_61 <=1 
C566: x18+x19-y18_19 <=1 
C567: x18+x21-y18_21 <=1 
C568: x18+x22 <=1 
C569: x18+x25 <=1 
C570: x18+x29-y18_29 <=1 
C571: x18+x30-y18_30 <=1 
C572: x18+x32-y18_32 <=1 
C573: x18+x35-y18_35 <=1 
C574: x18+x37 <=1 
C575: x18+x38 <=1 
C576: x18+x39-y18_39 <=1 
C577: x18+x40-y18_40 <=1 
C578: x18+x41 <=1 
C579: x18+x42 <=1 
C580: x18+x44-y18_44 <=1 
C581: x18+x45 <=1 
C582: x18+x49-y18_49 <=1 
C583: x18+x50-y18_50 <=1 
C584: x18+x52 <=1 
C585: x18+x55-y18_55 <=1 
C586: x18+x56-y18_56 <=1 
C587: x18+x59-y18_59 <=1 
C588: x18+x61-y18_61 <=1 
C589: x19+x21 <=1 
C590: x19+x23 <=1 
C591: x19+x27-y19_27 <=1 
C592: x19+x28-y19_28 <=1 
C593: x19+x29-y19_29 <=1 
C594: x19+x30-y19_30 <=1 
C595: x19+x31-y19_31 <=1 
C596: x19+x33-y19_33 <=1 
C597: x19+x34-y19_34 <=1 
C598: x19+x36-y19_36 <=1 
C599: x19+x37-y19_37 <=1 
C600: x19+x39-y19_39 <=1 
C601: x19+x45-y19_45 <=1 
C602: x19+x46-y19_46 <=1 
C603: x19+x47 <=1 
C604: x19+x51-y19_51 <=1 
C605: x19+x52 <=1 
C606: x19+x53-y19_53 <=1 
C607: x19+x55 <=1 
C608: x19+x56-y19_56 <=1 
C609: x19+x57 <=1 
C610: x19+x58-y19_58 <=1 
C611: x19+x59-y19_59 <=1 
C612: x19+x61 <=1 
C613: x20+x21 <=1 
C614: x20+x22 <=1 
C615: x20+x23 <=1 
C616: x20+x26-y20_26 <=1 
C617: x20+x27-y20_27 <=1 
C618: x20+x28-y20_28 <=1 
C619: x20+x29-y20_29 <=1 
C620: x20+x30 <=1 
C621: x20+x31-y20_31 <=1 
C622: x20+x34-y20_34 <=1 
C623: x20+x36-y20_36 <=1 
C624: x20+x38 <=1 
C625: x20+x39-y20_39 <=1 
C626: x20+x43-y20_43 <=1 
C627: x20+x44-y20_44 <=1 
C628: x20+x46 <=1 
C629: x20+x47 <=1 
C630: x20+x51 <=1 
C631: x20+x52 <=1 
C632: x20+x53-y20_53 <=1 
C633: x20+x57 <=1 
C634: x20+x60-y20_60 <=1 
C635: x21+x24-y21_24 <=1 
C636: x21+x25 <=1 
C637: x21+x26-y21_26 <=1 
C638: x21+x28 <=1 
C639: x21+x29-y21_29 <=1 
C640: x21+x31 <=1 
C641: x21+x33 <=1 
C642: x21+x34 <=1 
C643: x21+x35-y21_35 <=1 
C644: x21+x37 <=1 
C645: x21+x40-y21_40 <=1 
C646: x21+x41-y21_41 <=1 
C647: x21+x42 <=1 
C648: x21+x44 <=1 
C649: x21+x47-y21_47 <=1 
C650: x21+x48 <=1 
C651: x21+x50-y21_50 <=1 
C652: x21+x51-y21_51 <=1 
C653: x21+x53-y21_53 <=1 
C654: x21+x55-y21_55 <=1 
C655: x21+x57 <=1 
C656: x21+x58 <=1 
C657: x21+x60 <=1 
C658: x21+x61 <=1 
C659: x22+x27 <=1 
C660: x22+x28 <=1 
C661: x22+x32 <=1 
C662: x22+x33 <=1 
C663: x22+x35 <=1 
C664: x22+x36-y22_36 <=1 
C665: x22+x37-y22_37 <=1 
C666: x22+x38-y22_38 <=1 
C667: x22+x39-y22_39 <=1 
C668: x22+x41 <=1 
C669: x22+x43-y22_43 <=1 
C670: x22+x46-y22_46 <=1 
C671: x22+x49 <=1 
C672: x22+x50 <=1 
C673: x22+x52 <=1 
C674: x22+x53-y22_53 <=1 
C675: x22+x56-y22_56 <=1 
C676: x22+x57 <=1 
C677: x22+x60 <=1 
C678: x22+x61 <=1 
C679: x23+x24-y23_24 <=1 
C680: x23+x25-y23_25 <=1 
C681: x23+x26 <=1 
C682: x23+x27 <=1 
C683: x23+x28 <=1 
C684: x23+x29-y23_29 <=1 
C685: x23+x31-y23_31 <=1 
C686: x23+x32-y23_32 <=1 
C687: x23+x33 <=1 
C688: x23+x34 <=1 
C689: x23+x38-y23_38 <=1 
C690: x23+x39-y23_39 <=1 
C691: x23+x40-y23_40 <=1 
C692: x23+x41-y23_41 <=1 
C693: x23+x42 <=1 
C694: x23+x43 <=1 
C695: x23+x45-y23_45 <=1 
C696: x23+x47 <=1 
C697: x23+x48 <=1 
C698: x23+x49-y23_49 <=1 
C699: x23+x50 <=1 
C700: x23+x52 <=1 
C701: x23+x55 <=1 
C702: x23+x56 <=1 
C703: x23+x59-y23_59 <=1 
C704: x23+x61 <=1 
C705: x24+x26 <=1 
C706: x24+x29-y24_29 <=1 
C707: x24+x30-y24_30 <=1 
C708: x24+x31-y24_31 <=1 
C709: x24+x32 <=1 
C710: x24+x33-y24_33 <=1 
C711: x24+x34 <=1 
C712: x24+x37-y24_37 <=1 
C713: x24+x39 <=1 
C714: x24+x40 <=1 
C715: x24+x41 <=1 
C716: x24+x42 <=1 
C717: x24+x43-y24_43 <=1 
C718: x24+x44 <=1 
C719: x24+x47-y24_47 <=1 
C720: x24+x48 <=1 
C721: x24+x50 <=1 
C722: x24+x51 <=1 
C723: x24+x52-y24_52 <=1 
C724: x24+x53-y24_53 <=1 
C725: x24+x54-y24_54 <=1 
C726: x24+x55-y24_55 <=1 
C727: x24+x56 <=1 
C728: x24+x57-y24_57 <=1 
C729: x24+x58 <=1 
C730: x24+x60 <=1 
C731: x25+x26 <=1 
C732: x25+x31 <=1 
C733: x25+x32 <=1 
C734: x25+x33-y25_33 <=1 
C735: x25+x34-y25_34 <=1 
C736: x25+x35 <=1 
C737: x25+x36-y25_36 <=1 
C738: x25+x38-y25_38 <=1 
C739: x25+x39 <=1 
C740: x25+x40-y25_40 <=1 
C741: x25+x44-y25_44 <=1 
C742: x25+x45-y25_45 <=1 
C743: x25+x47 <=1 
C744: x25+x48 <=1 
C745: x25+x52-y25_52 <=1 
C746: x25+x53 <=1 
C747: x25+x55 <=1 
C748: x25+x56 <=1 
C749: x25+x57 <=1 
C750: x25+x59-y25_59 <=1 
C751: x25+x60 <=1 
C752: x25+x61-y25_61 <=1 
C753: x26+x27 <=1 
C754: x26+x29-y26_29 <=1 
C755: x26+x31 <=1 
C756: x26+x32-y26_32 <=1 
C757: x26+x33-y26_33 <=1 
C758: x26+x34-y26_34 <=1 
C759: x26+x36-y26_36 <=1 
C760: x26+x37 <=1 
C761: x26+x38 <=1 
C762: x26+x39 <=1 
C763: x26+x40 <=1 
C764: x26+x42-y26_42 <=1 
C765: x26+x43 <=1 
C766: x26+x44-y26_44 <=1 
C767: x26+x45 <=1 
C768: x26+x46-y26_46 <=1 
C769: x26+x47-y26_47 <=1 
C770: x26+x48-y26_48 <=1 
C771: x26+x50-y26_50 <=1 
C772: x26+x51-y26_51 <=1 
C773: x26+x52 <=1 
C774: x26+x53 <=1 
C775: x26+x54-y26_54 <=1 
C776: x26+x56 <=1 
C777: x26+x58 <=1 
C778: x26+x60 <=1 
C779: x26+x61-y26_61 <=1 
C780: x27+x28 <=1 
C781: x27+x29 <=1 
C782: x27+x32 <=1 
C783: x27+x33 <=1 
C784: x27+x34-y27_34 <=1 
C785: x27+x36-y27_36 <=1 
C786: x27+x38-y27_38 <=1 
C787: x27+x41-y27_41 <=1 
C788: x27+x42 <=1 
C789: x27+x44-y27_44 <=1 
C790: x27+x45 <=1 
C791: x27+x46 <=1 
C792: x27+x47-y27_47 <=1 
C793: x27+x49 <=1 
C794: x27+x53-y27_53 <=1 
C795: x27+x55 <=1 
C796: x27+x57-y27_57 <=1 
C797: x27+x58 <=1 
C798: x27+x59 <=1 
C799: x27+x60-y27_60 <=1 
C800: x28+x29 <=1 
C801: x28+x30-y28_30 <=1 
C802: x28+x31 <=1 
C803: x28+x32 <=1 
C804: x28+x35 <=1 
C805: x28+x36-y28_36 <=1 
C806: x28+x38 <=1 
C807: x28+x39-y28_39 <=1 
C808: x28+x40 <=1 
C809: x28+x41 <=1 
C810: x28+x44 <=1 
C811: x28+x46-y28_46 <=1 
C812: x28+x48-y28_48 <=1 
C813: x28+x50 <=1 
C814: x28+x51-y28_51 <=1 
C815: x28+x52 <=1 
C816: x28+x53 <=1 
C817: x28+x55-y28_55 <=1 
C818: x28+x56 <=1 
C819: x28+x57-y28_57 <=1 
C820: x28+x58 <=1 
C821: x28+x60-y28_60 <=1 
C822: x28+x61 <=1 
C823: x29+x31 <=1 
C824: x29+x34-y29_34 <=1 
C825: x29+x35 <=1 
C826: x29+x36 <=1 
C827: x29+x38-y29_38 <=1 
C828: x29+x41-y29_41 <=1 
C829: x29+x42-y29_42 <=1 
C830: x29+x43 <=1 
C831: x29+x44 <=1 
C832: x29+x45-y29_45 <=1 
C833: x29+x46-y29_46 <=1 
C834: x29+x48-y29_48 <=1 
C835: x29+x49-y29_49 <=1 
C836: x29+x51-y29_51 <=1 
C837: x29+x52-y29_52 <=1 
C838: x29+x53-y29_53 <=1 
C839: x29+x54 <=1 
C840: x29+x56-y29_56 <=1 
C841: x29+x61-y29_61 <=1 
C842: x30+x31 <=1 
C843: x30+x32 <=1 
C844: x30+x33 <=1 
C845: x30+x34 <=1 
C846: x30+x35-y30_35 <=1 
C847: x30+x38 <=1 
C848: x30+x39-y30_39 <=1 
C849: x30+x42 <=1 
C850: x30+x43-y30_43 <=1 
C851: x30+x44-y30_44 <=1 
C852: x30+x45-y30_45 <=1 
C853: x30+x46-y30_46 <=1 
C854: x30+x47-y30_47 <=1 
C855: x30+x49-y30_49 <=1 
C856: x30+x50-y30_50 <=1 
C857: x30+x53-y30_53 <=1 
C858: x30+x55-y30_55 <=1 
C859: x30+x56-y30_56 <=1 
C860: x30+x57 <=1 
C861: x30+x58 <=1 
C862: x30+x60-y30_60 <=1 
C863: x30+x61-y30_61 <=1 
C864: x31+x32 <=1 
C865: x31+x34-y31_34 <=1 
C866: x31+x35 <=1 
C867: x31+x36 <=1 
C868: x31+x38 <=1 
C869: x31+x39 <=1 
C870: x31+x42 <=1 
C871: x31+x44-y31_44 <=1 
C872: x31+x45-y31_45 <=1 
C873: x31+x47-y31_47 <=1 
C874: x31+x48 <=1 
C875: x31+x50 <=1 
C876: x31+x52 <=1 
C877: x31+x53-y31_53 <=1 
C878: x31+x54-y31_54 <=1 
C879: x31+x58 <=1 
C880: x31+x59 <=1 
C881: x31+x61-y31_61 <=1 
C882: x32+x33 <=1 
C883: x32+x39 <=1 
C884: x32+x40-y32_40 <=1 
C885: x32+x41 <=1 
C886: x32+x43 <=1 
C887: x32+x46 <=1 
C888: x32+x47 <=1 
C889: x32+x48 <=1 
C890: x32+x50-y32_50 <=1 
C891: x32+x51 <=1 
C892: x32+x55 <=1 
C893: x32+x58 <=1 
C894: x32+x61 <=1 
C895: x33+x34 <=1 
C896: x33+x36-y33_36 <=1 
C897: x33+x37-y33_37 <=1 
C898: x33+x38 <=1 
C899: x33+x39 <=1 
C900: x33+x41 <=1 
C901: x33+x42 <=1 
C902: x33+x43-y33_43 <=1 
C903: x33+x44 <=1 
C904: x33+x48-y33_48 <=1 
C905: x33+x54 <=1 
C906: x33+x56-y33_56 <=1 
C907: x33+x60-y33_60 <=1 
C908: x34+x36 <=1 
C909: x34+x37-y34_37 <=1 
C910: x34+x38 <=1 
C911: x34+x41-y34_41 <=1 
C912: x34+x42 <=1 
C913: x34+x44 <=1 
C914: x34+x46-y34_46 <=1 
C915: x34+x47-y34_47 <=1 
C916: x34+x49 <=1 
C917: x34+x50 <=1 
C918: x34+x51 <=1 
C919: x34+x52-y34_52 <=1 
C920: x34+x54-y34_54 <=1 
C921: x34+x55 <=1 
C922: x34+x57 <=1 
C923: x34+x58 <=1 
C924: x35+x36 <=1 
C925: x35+x38 <=1 
C926: x35+x39 <=1 
C927: x35+x43 <=1 
C928: x35+x45-y35_45 <=1 
C929: x35+x46-y35_46 <=1 
C930: x35+x47 <=1 
C931: x35+x48-y35_48 <=1 
C932: x35+x50-y35_50 <=1 
C933: x35+x51-y35_51 <=1 
C934: x35+x52 <=1 
C935: x35+x53 <=1 
C936: x35+x55 <=1 
C937: x35+x56-y35_56 <=1 
C938: x35+x57-y35_57 <=1 
C939: x35+x59-y35_59 <=1 
C940: x35+x60-y35_60 <=1 
C941: x35+x61-y35_61 <=1 
C942: x36+x37 <=1 
C943: x36+x42 <=1 
C944: x36+x43 <=1 
C945: x36+x45 <=1 
C946: x36+x46 <=1 
C947: x36+x47 <=1 
C948: x36+x48-y36_48 <=1 
C949: x36+x49 <=1 
C950: x36+x54 <=1 
C951: x36+x55-y36_55 <=1 
C952: x36+x57 <=1 
C953: x36+x59 <=1 
C954: x36+x60 <=1 
C955: x37+x38-y37_38 <=1 
C956: x37+x39-y37_39 <=1 
C957: x37+x40 <=1 
C958: x37+x41-y37_41 <=1 
C959: x37+x42 <=1 
C960: x37+x44 <=1 
C961: x37+x46 <=1 
C962: x37+x47 <=1 
C963: x37+x48 <=1 
C964: x37+x50-y37_50 <=1 
C965: x37+x51 <=1 
C966: x37+x52 <=1 
C967: x37+x53-y37_53 <=1 
C968: x37+x54 <=1 
C969: x37+x55 <=1 
C970: x37+x56-y37_56 <=1 
C971: x38+x39-y38_39 <=1 
C972: x38+x40 <=1 
C973: x38+x41 <=1 
C974: x38+x42 <=1 
C975: x38+x43-y38_43 <=1 
C976: x38+x45 <=1 
C977: x38+x46 <=1 
C978: x38+x47-y38_47 <=1 
C979: x38+x51 <=1 
C980: x38+x52 <=1 
C981: x38+x53-y38_53 <=1 
C982: x38+x56-y38_56 <=1 
C983: x38+x58 <=1 
C984: x38+x60 <=1 
C985: x38+x61 <=1 
C986: x39+x41 <=1 
C987: x39+x42-y39_42 <=1 
C988: x39+x44 <=1 
C989: x39+x45 <=1 
C990: x39+x46 <=1 
C991: x39+x48-y39_48 <=1 
C992: x39+x49 <=1 
C993: x39+x50 <=1 
C994: x39+x52 <=1 
C995: x39+x53-y39_53 <=1 
C996: x39+x54 <=1 
C997: x39+x55-y39_55 <=1 
C998: x39+x56-y39_56 <=1 
C999: x39+x57-y39_57 <=1 
C1000: x39+x58 <=1 
C1001: x39+x60-y39_60 <=1 
C1002: x39+x61-y39_61 <=1 
C1003: x40+x46 <=1 
C1004: x40+x47-y40_47 <=1 
C1005: x40+x48-y40_48 <=1 
C1006: x40+x50 <=1 
C1007: x40+x52 <=1 
C1008: x40+x53 <=1 
C1009: x40+x54 <=1 
C1010: x40+x55 <=1 
C1011: x40+x56 <=1 
C1012: x40+x57 <=1 
C1013: x40+x59-y40_59 <=1 
C1014: x40+x60-y40_60 <=1 
C1015: x41+x45 <=1 
C1016: x41+x46 <=1 
C1017: x41+x47 <=1 
C1018: x41+x50 <=1 
C1019: x41+x52-y41_52 <=1 
C1020: x41+x53-y41_53 <=1 
C1021: x41+x54-y41_54 <=1 
C1022: x41+x55 <=1 
C1023: x41+x57-y41_57 <=1 
C1024: x41+x59-y41_59 <=1 
C1025: x41+x60-y41_60 <=1 
C1026: x42+x43-y42_43 <=1 
C1027: x42+x45 <=1 
C1028: x42+x46 <=1 
C1029: x42+x48-y42_48 <=1 
C1030: x42+x49-y42_49 <=1 
C1031: x42+x50-y42_50 <=1 
C1032: x42+x52-y42_52 <=1 
C1033: x42+x53 <=1 
C1034: x42+x59 <=1 
C1035: x42+x60-y42_60 <=1 
C1036: x43+x44-y43_44 <=1 
C1037: x43+x46-y43_46 <=1 
C1038: x43+x47-y43_47 <=1 
C1039: x43+x49-y43_49 <=1 
C1040: x43+x50-y43_50 <=1 
C1041: x43+x51 <=1 
C1042: x43+x55 <=1 
C1043: x43+x57-y43_57 <=1 
C1044: x43+x58 <=1 
C1045: x43+x59-y43_59 <=1 
C1046: x43+x61 <=1 
C1047: x44+x45-y44_45 <=1 
C1048: x44+x46-y44_46 <=1 
C1049: x44+x47 <=1 
C1050: x44+x48 <=1 
C1051: x44+x50 <=1 
C1052: x44+x52-y44_52 <=1 
C1053: x44+x53-y44_53 <=1 
C1054: x44+x55 <=1 
C1055: x44+x57-y44_57 <=1 
C1056: x44+x58-y44_58 <=1 
C1057: x44+x61 <=1 
C1058: x45+x47 <=1 
C1059: x45+x48 <=1 
C1060: x45+x49-y45_49 <=1 
C1061: x45+x51-y45_51 <=1 
C1062: x45+x52-y45_52 <=1 
C1063: x45+x53 <=1 
C1064: x45+x54 <=1 
C1065: x45+x56 <=1 
C1066: x45+x57-y45_57 <=1 
C1067: x45+x60 <=1 
C1068: x45+x61 <=1 
C1069: x46+x47 <=1 
C1070: x46+x48 <=1 
C1071: x46+x49 <=1 
C1072: x46+x50 <=1 
C1073: x46+x51-y46_51 <=1 
C1074: x46+x53-y46_53 <=1 
C1075: x46+x55-y46_55 <=1 
C1076: x46+x59 <=1 
C1077: x47+x48-y47_48 <=1 
C1078: x47+x49 <=1 
C1079: x47+x50 <=1 
C1080: x47+x52-y47_52 <=1 
C1081: x47+x53 <=1 
C1082: x47+x55-y47_55 <=1 
C1083: x47+x60-y47_60 <=1 
C1084: x47+x61-y47_61 <=1 
C1085: x48+x49 <=1 
C1086: x48+x50-y48_50 <=1 
C1087: x48+x51 <=1 
C1088: x48+x52 <=1 
C1089: x48+x53-y48_53 <=1 
C1090: x48+x54-y48_54 <=1 
C1091: x48+x55 <=1 
C1092: x48+x58 <=1 
C1093: x48+x59-y48_59 <=1 
C1094: x48+x60 <=1 
C1095: x48+x61 <=1 
C1096: x49+x51-y49_51 <=1 
C1097: x49+x52-y49_52 <=1 
C1098: x49+x53 <=1 
C1099: x49+x54-y49_54 <=1 
C1100: x49+x55-y49_55 <=1 
C1101: x49+x59 <=1 
C1102: x49+x60 <=1 
C1103: x49+x61 <=1 
C1104: x50+x51 <=1 
C1105: x50+x52 <=1 
C1106: x50+x53 <=1 
C1107: x50+x54-y50_54 <=1 
C1108: x50+x55 <=1 
C1109: x50+x56 <=1 
C1110: x50+x57-y50_57 <=1 
C1111: x50+x59 <=1 
C1112: x51+x53 <=1 
C1113: x51+x56 <=1 
C1114: x51+x58 <=1 
C1115: x51+x60-y51_60 <=1 
C1116: x51+x61-y51_61 <=1 
C1117: x52+x53 <=1 
C1118: x52+x54 <=1 
C1119: x52+x58 <=1 
C1120: x52+x59-y52_59 <=1 
C1121: x52+x61-y52_61 <=1 
C1122: x53+x54 <=1 
C1123: x53+x56-y53_56 <=1 
C1124: x53+x58-y53_58 <=1 
C1125: x53+x59-y53_59 <=1 
C1126: x53+x60-y53_60 <=1 
C1127: x53+x61-y53_61 <=1 
C1128: x54+x55 <=1 
C1129: x54+x56-y54_56 <=1 
C1130: x54+x57 <=1 
C1131: x54+x58-y54_58 <=1 
C1132: x54+x60 <=1 
C1133: x54+x61 <=1 
C1134: x55+x58-y55_58 <=1 
C1135: x55+x59 <=1 
C1136: x55+x60 <=1 
C1137: x56+x58 <=1 
C1138: x56+x59-y56_59 <=1 
C1139: x56+x60 <=1 
C1140: x56+x61-y56_61 <=1 
C1141: x57+x59-y57_59 <=1 
C1142: x57+x60 <=1 
C1143: x58+x60 <=1 
C1144: x58+x61-y58_61 <=1 
C1145: x60+x61-y60_61 <=1 

binary
x0
x1
x2
x3
x4
x5
x6
x7
x8
x9
x10
x11
x12
x13
x14
x15
x16
x17
x18
x19
x20
x21
x22
x23
x24
x25
x26
x27
x28
x29
x30
x31
x32
x33
x34
x35
x36
x37
x38
x39
x40
x41
x42
x43
x44
x45
x46
x47
x48
x49
x50
x51
x52
x53
x54
x55
x56
x57
x58
x59
x60
x61
