problem_generation/data/GISP/train/er_n=62_m=1145_p=0.60_SET2_setparam=100.00_alpha=0.50_270.sol
objective value:                                 1271
x6                                                  1 	(obj:100)
x8                                                  1 	(obj:100)
x11                                                 1 	(obj:100)
x13                                                 1 	(obj:100)
x14                                                 1 	(obj:100)
x19                                                 1 	(obj:100)
x25                                                 1 	(obj:100)
x29                                                 1 	(obj:100)
x33                                                 1 	(obj:100)
x45                                                 1 	(obj:100)
x49                                                 1 	(obj:100)
x50                                                 1 	(obj:100)
x58                                                 1 	(obj:100)
y11_14                                              1 	(obj:-1)
y29_45                                              1 	(obj:-1)
y29_49                                              1 	(obj:-1)
y25_33                                              1 	(obj:-1)
y13_49                                              1 	(obj:-1)
y19_45                                              1 	(obj:-1)
y11_50                                              1 	(obj:-1)
y11_45                                              1 	(obj:-1)
y11_13                                              1 	(obj:-1)
y11_49                                              1 	(obj:-1)
y8_11                                               1 	(obj:-1)
y25_45                                              1 	(obj:-1)
y13_58                                              1 	(obj:-1)
y6_45                                               1 	(obj:-1)
y6_58                                               1 	(obj:-1)
y6_8                                                1 	(obj:-1)
y13_25                                              1 	(obj:-1)
y19_58                                              1 	(obj:-1)
y13_33                                              1 	(obj:-1)
y6_11                                               1 	(obj:-1)
y8_29                                               1 	(obj:-1)
y19_29                                              1 	(obj:-1)
y8_33                                               1 	(obj:-1)
y19_33                                              1 	(obj:-1)
y8_19                                               1 	(obj:-1)
y11_33                                              1 	(obj:-1)
y45_49                                              1 	(obj:-1)
y11_19                                              1 	(obj:-1)
y14_29                                              1 	(obj:-1)
